<?xml version = "1.0" encoding="UTF-8" standalone="yes"?>
<CPLEXSolution version="1.2">
 <header
   problemName=""
   solutionName="incumbent"
   solutionIndex="-1"
   objectiveValue="96"
   solutionTypeValue="3"
   solutionTypeString="primal"
   solutionStatusValue="101"
   solutionStatusString="integer optimal solution"
   solutionMethodString="mip"
   primalFeasible="1"
   dualFeasible="1"
   MIPNodes="0"
   MIPIterations="1"
   writeLevel="1"/>
 <quality
   epInt="1.0000000000000001e-05"
   epRHS="9.9999999999999995e-07"
   maxIntInfeas="0"
   maxPrimalInfeas="0"
   maxX="1"
   maxSlack="0"/>
 <linearConstraints>
  <constraint name="pessoa_0" index="0" slack="0"/>
  <constraint name="pessoa_1" index="1" slack="0"/>
  <constraint name="pessoa_2" index="2" slack="0"/>
  <constraint name="tarefa_A" index="3" slack="0"/>
  <constraint name="tarefa_B" index="4" slack="0"/>
  <constraint name="tarefa_C" index="5" slack="0"/>
 </linearConstraints>
 <variables>
  <variable name="x1A" index="0" value="-0"/>
  <variable name="x1B" index="1" value="0"/>
  <variable name="x1C" index="2" value="1"/>
  <variable name="x2A" index="3" value="1"/>
  <variable name="x2B" index="4" value="-0"/>
  <variable name="x2C" index="5" value="0"/>
  <variable name="x3A" index="6" value="-0"/>
  <variable name="x3B" index="7" value="1"/>
  <variable name="x3C" index="8" value="0"/>
 </variables>
 <objectiveValues>
  <objective index="0" name="" value="96"/>
 </objectiveValues>
</CPLEXSolution>
